&control
   prefix = 'pwo'
   verbosity = 'high'
   calculation = 'scf'
   outdir = './'
   pseudo_dir = '/home/ponet/pseudos/pbesolrel/PSEUDOPOTENTIALS'
   disk_io = 'low'
   restart_mode = 'from_scratch'
/

&system
   A = 3.8
   nat = 5
   ecutwfc = 35
   lspinorb = true
   ecutrho = 280
   ntyp = 3
   nbnd = 60
   noncolin = true
   ibrav = 0
/

&electrons
   mixing_beta = 0.3
   conv_thr = 1.0e-7
   mixing_mode = 'plain'
   diagonalization = 'david'
/

CELL_PARAMETERS (alat)
 1.0 0.0 0.0
 0.0 1.0 0.0
 0.0 0.0 1.0315789

ATOMIC_SPECIES
Al 26.9815   Al.rel-pbesol-n-kjpaw_psl.0.2.2.UPF
Bi 208.9804   Bi.rel-pbesol-dn-kjpaw_psl.0.2.2.UPF
O 15.9994   O.rel-pbesol-n-kjpaw_psl.0.1.UPF

ATOMIC_POSITIONS (crystal)
Al 0.5 0.5 0.4247
Bi 0.0 0.0 0.0
O 0.5 0.5 0.8899
O 0.5 0.0 0.365
O 0.0 0.5 0.365

K_POINTS (automatic)
 10 10 10 1 1 1

